sat
(:max-memory         18.52
 :memory             18.43
 :nlsat-arith-var    3
 :nlsat-atoms        12
 :nlsat-bool-var     1
 :nlsat-clauses      10
 :nlsat-conflicts    1
 :nlsat-propagations 11
 :nlsat-stages       5
 :num-allocs         57481
 :rlimit-count       4617
 :time               0.00
 :total-time         0.02)
